c nIsolatedPIs 0
c maxPI 11
p cnf 454 1330
c gate 12 -2 10 0
-2 -12 0
10 -12 0
2 -10 12 0
c gate 13 9 10 0
9 -13 0
10 -13 0
-9 -10 13 0
c gate 14 8 13 0
8 -14 0
13 -14 0
-8 -13 14 0
c gate 15 -3 -14 0
-3 -15 0
-14 -15 0
3 14 15 0
c gate 16 -12 -15 0
-12 -16 0
-15 -16 0
12 15 16 0
c gate 17 8 9 0
8 -17 0
9 -17 0
-8 -9 17 0
c gate 18 7 -10 0
7 -18 0
-10 -18 0
-7 10 18 0
c gate 19 -7 10 0
-7 -19 0
10 -19 0
7 -10 19 0
c gate 20 -18 -19 0
-18 -20 0
-19 -20 0
18 19 20 0
c gate 21 17 20 0
17 -21 0
20 -21 0
-17 -20 21 0
c gate 22 -10 -17 0
-10 -22 0
-17 -22 0
10 17 22 0
c gate 23 3 -10 0
3 -23 0
-10 -23 0
-3 10 23 0
c gate 24 3 9 0
3 -24 0
9 -24 0
-3 -9 24 0
c gate 25 -23 -24 0
-23 -25 0
-24 -25 0
23 24 25 0
c gate 26 -2 25 0
-2 -26 0
25 -26 0
2 -25 26 0
c gate 27 -22 26 0
-22 -27 0
26 -27 0
22 -26 27 0
c gate 28 -21 27 0
-21 -28 0
27 -28 0
21 -27 28 0
c gate 29 -16 -28 0
-16 -29 0
-28 -29 0
16 28 29 0
c gate 30 -7 -8 0
-7 -30 0
-8 -30 0
7 8 30 0
c gate 31 5 7 0
5 -31 0
7 -31 0
-5 -7 31 0
c gate 32 -30 -31 0
-30 -32 0
-31 -32 0
30 31 32 0
c gate 33 9 -32 0
9 -33 0
-32 -33 0
-9 32 33 0
c gate 34 4 5 0
4 -34 0
5 -34 0
-4 -5 34 0
c gate 35 8 -9 0
8 -35 0
-9 -35 0
-8 9 35 0
c gate 36 -34 35 0
-34 -36 0
35 -36 0
34 -35 36 0
c gate 37 -33 -36 0
-33 -37 0
-36 -37 0
33 36 37 0
c gate 38 4 7 0
4 -38 0
7 -38 0
-4 -7 38 0
c gate 39 1 38 0
1 -39 0
38 -39 0
-1 -38 39 0
c gate 40 7 -39 0
7 -40 0
-39 -40 0
-7 39 40 0
c gate 41 5 -8 0
5 -41 0
-8 -41 0
-5 8 41 0
c gate 42 -40 41 0
-40 -42 0
41 -42 0
40 -41 42 0
c gate 43 37 -42 0
37 -43 0
-42 -43 0
-37 42 43 0
c gate 44 -2 -7 0
-2 -44 0
-7 -44 0
2 7 44 0
c gate 45 3 -44 0
3 -45 0
-44 -45 0
-3 44 45 0
c gate 46 -43 -45 0
-43 -46 0
-45 -46 0
43 45 46 0
c gate 47 -2 -3 0
-2 -47 0
-3 -47 0
2 3 47 0
c gate 48 -11 47 0
-11 -48 0
47 -48 0
11 -47 48 0
c gate 49 29 -43 0
29 -49 0
-43 -49 0
-29 43 49 0
c gate 50 48 -49 0
48 -50 0
-49 -50 0
-48 49 50 0
c gate 51 -2 -11 0
-2 -51 0
-11 -51 0
2 11 51 0
c gate 52 2 11 0
2 -52 0
11 -52 0
-2 -11 52 0
c gate 53 -51 -52 0
-51 -53 0
-52 -53 0
51 52 53 0
c gate 54 -3 -29 0
-3 -54 0
-29 -54 0
3 29 54 0
c gate 55 3 29 0
3 -55 0
29 -55 0
-3 -29 55 0
c gate 56 -54 -55 0
-54 -56 0
-55 -56 0
54 55 56 0
c gate 57 53 -56 0
53 -57 0
-56 -57 0
-53 56 57 0
c gate 58 -11 29 0
-11 -58 0
29 -58 0
11 -29 58 0
c gate 59 2 -54 0
2 -59 0
-54 -59 0
-2 54 59 0
c gate 60 -58 59 0
-58 -60 0
59 -60 0
58 -59 60 0
c gate 61 -57 -60 0
-57 -61 0
-60 -61 0
57 60 61 0
c gate 62 -50 61 0
-50 -62 0
61 -62 0
50 -61 62 0
c gate 63 -11 -62 0
-11 -63 0
-62 -63 0
11 62 63 0
c gate 64 -46 -63 0
-46 -64 0
-63 -64 0
46 63 64 0
c gate 65 2 -3 0
2 -65 0
-3 -65 0
-2 3 65 0
c gate 66 -10 -11 0
-10 -66 0
-11 -66 0
10 11 66 0
c gate 67 47 66 0
47 -67 0
66 -67 0
-47 -66 67 0
c gate 68 -62 -67 0
-62 -68 0
-67 -68 0
62 67 68 0
c gate 69 -9 11 0
-9 -69 0
11 -69 0
9 -11 69 0
c gate 70 -13 -69 0
-13 -70 0
-69 -70 0
13 69 70 0
c gate 71 -43 -70 0
-43 -71 0
-70 -71 0
43 70 71 0
c gate 72 43 66 0
43 -72 0
66 -72 0
-43 -66 72 0
c gate 73 8 -72 0
8 -73 0
-72 -73 0
-8 72 73 0
c gate 74 -71 73 0
-71 -74 0
73 -74 0
71 -73 74 0
c gate 75 11 -43 0
11 -75 0
-43 -75 0
-11 43 75 0
c gate 76 -11 43 0
-11 -76 0
43 -76 0
11 -43 76 0
c gate 77 -75 -76 0
-75 -77 0
-76 -77 0
75 76 77 0
c gate 78 -9 -11 0
-9 -78 0
-11 -78 0
9 11 78 0
c gate 79 -8 -78 0
-8 -79 0
-78 -79 0
8 78 79 0
c gate 80 77 79 0
77 -80 0
79 -80 0
-77 -79 80 0
c gate 81 10 11 0
10 -81 0
11 -81 0
-10 -11 81 0
c gate 82 -8 -9 0
-8 -82 0
-9 -82 0
8 9 82 0
c gate 83 66 82 0
66 -83 0
82 -83 0
-66 -82 83 0
c gate 84 -81 -83 0
-81 -84 0
-83 -84 0
81 83 84 0
c gate 85 -80 84 0
-80 -85 0
84 -85 0
80 -84 85 0
c gate 86 -74 85 0
-74 -86 0
85 -86 0
74 -85 86 0
c gate 87 -43 86 0
-43 -87 0
86 -87 0
43 -86 87 0
c gate 88 68 87 0
68 -88 0
87 -88 0
-68 -87 88 0
c gate 89 43 -86 0
43 -89 0
-86 -89 0
-43 86 89 0
c gate 90 -87 -89 0
-87 -90 0
-89 -90 0
87 89 90 0
c gate 91 -68 90 0
-68 -91 0
90 -91 0
68 -90 91 0
c gate 92 47 -91 0
47 -92 0
-91 -92 0
-47 91 92 0
c gate 93 -88 92 0
-88 -93 0
92 -93 0
88 -92 93 0
c gate 94 -62 93 0
-62 -94 0
93 -94 0
62 -93 94 0
c gate 95 -65 94 0
-65 -95 0
94 -95 0
65 -94 95 0
c gate 96 64 -95 0
64 -96 0
-95 -96 0
-64 95 96 0
c gate 97 -64 93 0
-64 -97 0
93 -97 0
64 -93 97 0
c gate 98 -9 -97 0
-9 -98 0
-97 -98 0
9 97 98 0
c gate 99 -96 98 0
-96 -99 0
98 -99 0
96 -98 99 0
c gate 100 9 11 0
9 -100 0
11 -100 0
-9 -11 100 0
c gate 101 62 100 0
62 -101 0
100 -101 0
-62 -100 101 0
c gate 102 -65 -101 0
-65 -102 0
-101 -102 0
65 101 102 0
c gate 103 -93 -102 0
-93 -103 0
-102 -103 0
93 102 103 0
c gate 104 -99 -103 0
-99 -104 0
-103 -104 0
99 103 104 0
c gate 105 29 -104 0
29 -105 0
-104 -105 0
-29 104 105 0
c gate 106 -29 93 0
-29 -106 0
93 -106 0
29 -93 106 0
c gate 107 -65 -94 0
-65 -107 0
-94 -107 0
65 94 107 0
c gate 108 9 -107 0
9 -108 0
-107 -108 0
-9 107 108 0
c gate 109 -106 -108 0
-106 -109 0
-108 -109 0
106 108 109 0
c gate 110 -11 -109 0
-11 -110 0
-109 -110 0
11 109 110 0
c gate 111 -105 -110 0
-105 -111 0
-110 -111 0
105 110 111 0
c gate 112 -6 -7 0
-6 -112 0
-7 -112 0
6 7 112 0
c gate 113 6 7 0
6 -113 0
7 -113 0
-6 -7 113 0
c gate 114 -112 -113 0
-112 -114 0
-113 -114 0
112 113 114 0
c gate 115 10 -114 0
10 -115 0
-114 -115 0
-10 114 115 0
c gate 116 -8 43 0
-8 -116 0
43 -116 0
8 -43 116 0
c gate 117 6 -8 0
6 -117 0
-8 -117 0
-6 8 117 0
c gate 118 -6 8 0
-6 -118 0
8 -118 0
6 -8 118 0
c gate 119 -117 -118 0
-117 -119 0
-118 -119 0
117 118 119 0
c gate 120 20 -119 0
20 -120 0
-119 -120 0
-20 119 120 0
c gate 121 -116 120 0
-116 -121 0
120 -121 0
116 -120 121 0
c gate 122 7 43 0
7 -122 0
43 -122 0
-7 -43 122 0
c gate 123 -112 -117 0
-112 -123 0
-117 -123 0
112 117 123 0
c gate 124 -122 123 0
-122 -124 0
123 -124 0
122 -123 124 0
c gate 125 -121 -124 0
-121 -125 0
-124 -125 0
121 124 125 0
c gate 126 115 -125 0
115 -126 0
-125 -126 0
-115 125 126 0
c gate 127 -7 -43 0
-7 -127 0
-43 -127 0
7 43 127 0
c gate 128 -122 -127 0
-122 -128 0
-127 -128 0
122 127 128 0
c gate 129 -6 -20 0
-6 -129 0
-20 -129 0
6 20 129 0
c gate 130 128 129 0
128 -130 0
129 -130 0
-128 -129 130 0
c gate 131 -126 -130 0
-126 -131 0
-130 -131 0
126 130 131 0
c gate 132 8 -131 0
8 -132 0
-131 -132 0
-8 131 132 0
c gate 133 8 -37 0
8 -133 0
-37 -133 0
-8 37 133 0
c gate 134 -125 -133 0
-125 -134 0
-133 -134 0
125 133 134 0
c gate 135 -132 -134 0
-132 -135 0
-134 -135 0
132 134 135 0
c gate 136 9 -135 0
9 -136 0
-135 -136 0
-9 135 136 0
c gate 137 -8 10 0
-8 -137 0
10 -137 0
8 -10 137 0
c gate 138 8 -10 0
8 -138 0
-10 -138 0
-8 10 138 0
c gate 139 -137 -138 0
-137 -139 0
-138 -139 0
137 138 139 0
c gate 140 -9 -118 0
-9 -140 0
-118 -140 0
9 118 140 0
c gate 141 -139 -140 0
-139 -141 0
-140 -141 0
139 140 141 0
c gate 142 -128 141 0
-128 -142 0
141 -142 0
128 -141 142 0
c gate 143 7 139 0
7 -143 0
139 -143 0
-7 -139 143 0
c gate 144 -7 138 0
-7 -144 0
138 -144 0
7 -138 144 0
c gate 145 -143 -144 0
-143 -145 0
-144 -145 0
143 144 145 0
c gate 146 6 -9 0
6 -146 0
-9 -146 0
-6 9 146 0
c gate 147 -145 146 0
-145 -147 0
146 -147 0
145 -146 147 0
c gate 148 9 112 0
9 -148 0
112 -148 0
-9 -112 148 0
c gate 149 22 148 0
22 -149 0
148 -149 0
-22 -148 149 0
c gate 150 -147 -149 0
-147 -150 0
-149 -150 0
147 149 150 0
c gate 151 -142 150 0
-142 -151 0
150 -151 0
142 -150 151 0
c gate 152 -136 151 0
-136 -152 0
151 -152 0
136 -151 152 0
c gate 153 3 -152 0
3 -153 0
-152 -153 0
-3 152 153 0
c gate 154 9 152 0
9 -154 0
152 -154 0
-9 -152 154 0
c gate 155 -7 154 0
-7 -155 0
154 -155 0
7 -154 155 0
c gate 156 -153 -155 0
-153 -156 0
-155 -156 0
153 155 156 0
c gate 157 2 -156 0
2 -157 0
-156 -157 0
-2 156 157 0
c gate 158 43 -152 0
43 -158 0
-152 -158 0
-43 152 158 0
c gate 159 -33 -158 0
-33 -159 0
-158 -159 0
33 158 159 0
c gate 160 -2 -159 0
-2 -160 0
-159 -160 0
2 159 160 0
c gate 161 47 152 0
47 -161 0
152 -161 0
-47 -152 161 0
c gate 162 -153 -161 0
-153 -162 0
-161 -162 0
153 161 162 0
c gate 163 7 -162 0
7 -163 0
-162 -163 0
-7 162 163 0
c gate 164 -160 -163 0
-160 -164 0
-163 -164 0
160 163 164 0
c gate 165 -157 164 0
-157 -165 0
164 -165 0
157 -164 165 0
c gate 166 -24 165 0
-24 -166 0
165 -166 0
24 -165 166 0
c gate 167 -29 -166 0
-29 -167 0
-166 -167 0
29 166 167 0
c gate 168 -9 -152 0
-9 -168 0
-152 -168 0
9 152 168 0
c gate 169 -154 -168 0
-154 -169 0
-168 -169 0
154 168 169 0
c gate 170 -66 -81 0
-66 -170 0
-81 -170 0
66 81 170 0
c gate 171 -8 -170 0
-8 -171 0
-170 -171 0
8 170 171 0
c gate 172 -11 139 0
-11 -172 0
139 -172 0
11 -139 172 0
c gate 173 -171 -172 0
-171 -173 0
-172 -173 0
171 172 173 0
c gate 174 -169 -173 0
-169 -174 0
-173 -174 0
169 173 174 0
c gate 175 -43 152 0
-43 -175 0
152 -175 0
43 -152 175 0
c gate 176 -158 -175 0
-158 -176 0
-175 -176 0
158 175 176 0
c gate 177 66 176 0
66 -177 0
176 -177 0
-66 -176 177 0
c gate 178 10 -77 0
10 -178 0
-77 -178 0
-10 77 178 0
c gate 179 -176 178 0
-176 -179 0
178 -179 0
176 -178 179 0
c gate 180 9 -179 0
9 -180 0
-179 -180 0
-9 179 180 0
c gate 181 -177 180 0
-177 -181 0
180 -181 0
177 -180 181 0
c gate 182 -10 77 0
-10 -182 0
77 -182 0
10 -77 182 0
c gate 183 -66 -178 0
-66 -183 0
-178 -183 0
66 178 183 0
c gate 184 152 -183 0
152 -184 0
-183 -184 0
-152 183 184 0
c gate 185 -182 -184 0
-182 -185 0
-184 -185 0
182 184 185 0
c gate 186 81 -152 0
81 -186 0
-152 -186 0
-81 152 186 0
c gate 187 -9 -186 0
-9 -187 0
-186 -187 0
9 186 187 0
c gate 188 185 187 0
185 -188 0
187 -188 0
-185 -187 188 0
c gate 189 -181 -188 0
-181 -189 0
-188 -189 0
181 188 189 0
c gate 190 10 152 0
10 -190 0
152 -190 0
-10 -152 190 0
c gate 191 100 -190 0
100 -191 0
-190 -191 0
-100 190 191 0
c gate 192 8 -191 0
8 -192 0
-191 -192 0
-8 191 192 0
c gate 193 -189 192 0
-189 -193 0
192 -193 0
189 -192 193 0
c gate 194 -10 152 0
-10 -194 0
152 -194 0
10 -152 194 0
c gate 195 -11 -194 0
-11 -195 0
-194 -195 0
11 194 195 0
c gate 196 176 195 0
176 -196 0
195 -196 0
-176 -195 196 0
c gate 197 -186 -196 0
-186 -197 0
-196 -197 0
186 196 197 0
c gate 198 9 -197 0
9 -198 0
-197 -198 0
-9 197 198 0
c gate 199 -13 -66 0
-13 -199 0
-66 -199 0
13 66 199 0
c gate 200 -185 199 0
-185 -200 0
199 -200 0
185 -199 200 0
c gate 201 -8 -200 0
-8 -201 0
-200 -201 0
8 200 201 0
c gate 202 -198 201 0
-198 -202 0
201 -202 0
198 -201 202 0
c gate 203 -193 -202 0
-193 -203 0
-202 -203 0
193 202 203 0
c gate 204 -174 -203 0
-174 -204 0
-203 -204 0
174 203 204 0
c gate 205 -43 204 0
-43 -205 0
204 -205 0
43 -204 205 0
c gate 206 -29 48 0
-29 -206 0
48 -206 0
29 -48 206 0
c gate 207 -152 206 0
-152 -207 0
206 -207 0
152 -206 207 0
c gate 208 61 -207 0
61 -208 0
-207 -208 0
-61 207 208 0
c gate 209 29 48 0
29 -209 0
48 -209 0
-29 -48 209 0
c gate 210 -176 209 0
-176 -210 0
209 -210 0
176 -209 210 0
c gate 211 208 -210 0
208 -211 0
-210 -211 0
-208 210 211 0
c gate 212 194 206 0
194 -212 0
206 -212 0
-194 -206 212 0
c gate 213 67 -212 0
67 -213 0
-212 -213 0
-67 212 213 0
c gate 214 211 213 0
211 -214 0
213 -214 0
-211 -213 214 0
c gate 215 -211 -213 0
-211 -215 0
-213 -215 0
211 213 215 0
c gate 216 -214 -215 0
-214 -216 0
-215 -216 0
214 215 216 0
c gate 217 43 -204 0
43 -217 0
-204 -217 0
-43 204 217 0
c gate 218 216 -217 0
216 -218 0
-217 -218 0
-216 217 218 0
c gate 219 -205 218 0
-205 -219 0
218 -219 0
205 -218 219 0
c gate 220 205 -216 0
205 -220 0
-216 -220 0
-205 216 220 0
c gate 221 -204 214 0
-204 -221 0
214 -221 0
204 -214 221 0
c gate 222 47 -221 0
47 -222 0
-221 -222 0
-47 221 222 0
c gate 223 -220 222 0
-220 -223 0
222 -223 0
220 -222 223 0
c gate 224 -219 223 0
-219 -224 0
223 -224 0
219 -223 224 0
c gate 225 167 -224 0
167 -225 0
-224 -225 0
-167 224 225 0
c gate 226 29 166 0
29 -226 0
166 -226 0
-29 -166 226 0
c gate 227 224 226 0
224 -227 0
226 -227 0
-224 -226 227 0
c gate 228 -225 -227 0
-225 -228 0
-227 -228 0
225 227 228 0
c gate 229 9 -228 0
9 -229 0
-228 -229 0
-9 228 229 0
c gate 230 -9 -167 0
-9 -230 0
-167 -230 0
9 167 230 0
c gate 231 -226 230 0
-226 -231 0
230 -231 0
226 -230 231 0
c gate 232 -224 231 0
-224 -232 0
231 -232 0
224 -231 232 0
c gate 233 -229 -232 0
-229 -233 0
-232 -233 0
229 232 233 0
c gate 234 11 -233 0
11 -234 0
-233 -234 0
-11 233 234 0
c gate 235 -11 211 0
-11 -235 0
211 -235 0
11 -211 235 0
c gate 236 224 -235 0
224 -236 0
-235 -236 0
-224 235 236 0
c gate 237 11 -208 0
11 -237 0
-208 -237 0
-11 208 237 0
c gate 238 -224 -237 0
-224 -238 0
-237 -238 0
224 237 238 0
c gate 239 9 -238 0
9 -239 0
-238 -239 0
-9 238 239 0
c gate 240 -236 239 0
-236 -240 0
239 -240 0
236 -239 240 0
c gate 241 -11 -224 0
-11 -241 0
-224 -241 0
11 224 241 0
c gate 242 11 224 0
11 -242 0
224 -242 0
-11 -224 242 0
c gate 243 -241 -242 0
-241 -243 0
-242 -243 0
241 242 243 0
c gate 244 -9 211 0
-9 -244 0
211 -244 0
9 -211 244 0
c gate 245 -243 244 0
-243 -245 0
244 -245 0
243 -244 245 0
c gate 246 -240 -245 0
-240 -246 0
-245 -246 0
240 245 246 0
c gate 247 29 -166 0
29 -247 0
-166 -247 0
-29 166 247 0
c gate 248 -246 247 0
-246 -248 0
247 -248 0
246 -247 248 0
c gate 249 -235 -237 0
-235 -249 0
-237 -249 0
235 237 249 0
c gate 250 29 249 0
29 -250 0
249 -250 0
-29 -249 250 0
c gate 251 11 -29 0
11 -251 0
-29 -251 0
-11 29 251 0
c gate 252 -58 -251 0
-58 -252 0
-251 -252 0
58 251 252 0
c gate 253 -78 -100 0
-78 -253 0
-100 -253 0
78 100 253 0
c gate 254 252 253 0
252 -254 0
253 -254 0
-252 -253 254 0
c gate 255 235 254 0
235 -255 0
254 -255 0
-235 -254 255 0
c gate 256 -250 -255 0
-250 -256 0
-255 -256 0
250 255 256 0
c gate 257 -224 256 0
-224 -257 0
256 -257 0
224 -256 257 0
c gate 258 249 254 0
249 -258 0
254 -258 0
-249 -254 258 0
c gate 259 224 -258 0
224 -259 0
-258 -259 0
-224 258 259 0
c gate 260 166 -259 0
166 -260 0
-259 -260 0
-166 259 260 0
c gate 261 -257 260 0
-257 -261 0
260 -261 0
257 -260 261 0
c gate 262 9 -166 0
9 -262 0
-166 -262 0
-9 166 262 0
c gate 263 -9 165 0
-9 -263 0
165 -263 0
9 -165 263 0
c gate 264 -262 -263 0
-262 -264 0
-263 -264 0
262 263 264 0
c gate 265 -226 -264 0
-226 -265 0
-264 -265 0
226 264 265 0
c gate 266 -243 265 0
-243 -266 0
265 -266 0
243 -265 266 0
c gate 267 78 225 0
78 -267 0
225 -267 0
-78 -225 267 0
c gate 268 -252 264 0
-252 -268 0
264 -268 0
252 -264 268 0
c gate 269 -241 268 0
-241 -269 0
268 -269 0
241 -268 269 0
c gate 270 -267 -269 0
-267 -270 0
-269 -270 0
267 269 270 0
c gate 271 -266 270 0
-266 -271 0
270 -271 0
266 -270 271 0
c gate 272 -261 271 0
-261 -272 0
271 -272 0
261 -271 272 0
c gate 273 -248 272 0
-248 -273 0
272 -273 0
248 -272 273 0
c gate 274 -234 273 0
-234 -274 0
273 -274 0
234 -273 274 0
c gate 275 111 274 0
111 -275 0
274 -275 0
-111 -274 275 0
c gate 276 -111 -274 0
-111 -276 0
-274 -276 0
111 274 276 0
c gate 277 -93 224 0
-93 -277 0
224 -277 0
93 -224 277 0
c gate 278 93 -224 0
93 -278 0
-224 -278 0
-93 224 278 0
c gate 279 -62 -211 0
-62 -279 0
-211 -279 0
62 211 279 0
c gate 280 62 211 0
62 -280 0
211 -280 0
-62 -211 280 0
c gate 281 -279 -280 0
-279 -281 0
-280 -281 0
279 280 281 0
c gate 282 2 -10 0
2 -282 0
-10 -282 0
-2 10 282 0
c gate 283 -12 -282 0
-12 -283 0
-282 -283 0
12 282 283 0
c gate 284 7 24 0
7 -284 0
24 -284 0
-7 -24 284 0
c gate 285 6 47 0
6 -285 0
47 -285 0
-6 -47 285 0
c gate 286 -24 -285 0
-24 -286 0
-285 -286 0
24 285 286 0
c gate 287 -9 -47 0
-9 -287 0
-47 -287 0
9 47 287 0
c gate 288 286 -287 0
286 -288 0
-287 -288 0
-286 287 288 0
c gate 289 -284 -288 0
-284 -289 0
-288 -289 0
284 288 289 0
c gate 290 8 -289 0
8 -290 0
-289 -290 0
-8 289 290 0
c gate 291 7 8 0
7 -291 0
8 -291 0
-7 -8 291 0
c gate 292 -30 -291 0
-30 -292 0
-291 -292 0
30 291 292 0
c gate 293 -286 292 0
-286 -293 0
292 -293 0
286 -292 293 0
c gate 294 -290 -293 0
-290 -294 0
-293 -294 0
290 293 294 0
c gate 295 -24 294 0
-24 -295 0
294 -295 0
24 -294 295 0
c gate 296 -283 -295 0
-283 -296 0
-295 -296 0
283 295 296 0
c gate 297 -4 -9 0
-4 -297 0
-9 -297 0
4 9 297 0
c gate 298 119 -297 0
119 -298 0
-297 -298 0
-119 297 298 0
c gate 299 -119 297 0
-119 -299 0
297 -299 0
119 -297 299 0
c gate 300 5 -82 0
5 -300 0
-82 -300 0
-5 82 300 0
c gate 301 -299 300 0
-299 -301 0
300 -301 0
299 -300 301 0
c gate 302 -298 301 0
-298 -302 0
301 -302 0
298 -301 302 0
c gate 303 -4 -5 0
-4 -303 0
-5 -303 0
4 5 303 0
c gate 304 -34 -303 0
-34 -304 0
-303 -304 0
34 303 304 0
c gate 305 -1 82 0
-1 -305 0
82 -305 0
1 -82 305 0
c gate 306 304 305 0
304 -306 0
305 -306 0
-304 -305 306 0
c gate 307 1 5 0
1 -307 0
5 -307 0
-1 -5 307 0
c gate 308 82 307 0
82 -308 0
307 -308 0
-82 -307 308 0
c gate 309 -6 -9 0
-6 -309 0
-9 -309 0
6 9 309 0
c gate 310 -5 8 0
-5 -310 0
8 -310 0
5 -8 310 0
c gate 311 -309 310 0
-309 -311 0
310 -311 0
309 -310 311 0
c gate 312 -308 -311 0
-308 -312 0
-311 -312 0
308 311 312 0
c gate 313 -306 312 0
-306 -313 0
312 -313 0
306 -312 313 0
c gate 314 -302 313 0
-302 -314 0
313 -314 0
302 -313 314 0
c gate 315 7 -314 0
7 -315 0
-314 -315 0
-7 314 315 0
c gate 316 -4 -315 0
-4 -316 0
-315 -316 0
4 315 316 0
c gate 317 38 -314 0
38 -317 0
-314 -317 0
-38 314 317 0
c gate 318 -8 78 0
-8 -318 0
78 -318 0
8 -78 318 0
c gate 319 -317 318 0
-317 -319 0
318 -319 0
317 -318 319 0
c gate 320 -316 319 0
-316 -320 0
319 -320 0
316 -319 320 0
c gate 321 -11 -314 0
-11 -321 0
-314 -321 0
11 314 321 0
c gate 322 253 292 0
253 -322 0
292 -322 0
-253 -292 322 0
c gate 323 -82 -322 0
-82 -323 0
-322 -323 0
82 322 323 0
c gate 324 321 323 0
321 -324 0
323 -324 0
-321 -323 324 0
c gate 325 -321 322 0
-321 -325 0
322 -325 0
321 -322 325 0
c gate 326 11 -292 0
11 -326 0
-292 -326 0
-11 292 326 0
c gate 327 -17 -82 0
-17 -327 0
-82 -327 0
17 82 327 0
c gate 328 326 -327 0
326 -328 0
-327 -328 0
-326 327 328 0
c gate 329 -325 -328 0
-325 -329 0
-328 -329 0
325 328 329 0
c gate 330 -324 329 0
-324 -330 0
329 -330 0
324 -329 330 0
c gate 331 -320 330 0
-320 -331 0
330 -331 0
320 -330 331 0
c gate 332 283 295 0
283 -332 0
295 -332 0
-283 -295 332 0
c gate 333 -331 332 0
-331 -333 0
332 -333 0
331 -332 333 0
c gate 334 -296 -333 0
-296 -334 0
-333 -334 0
296 333 334 0
c gate 335 -11 -334 0
-11 -335 0
-334 -335 0
11 334 335 0
c gate 336 -3 -331 0
-3 -336 0
-331 -336 0
3 331 336 0
c gate 337 -3 -332 0
-3 -337 0
-332 -337 0
3 332 337 0
c gate 338 -296 -337 0
-296 -338 0
-337 -338 0
296 337 338 0
c gate 339 -336 338 0
-336 -339 0
338 -339 0
336 -338 339 0
c gate 340 -335 -339 0
-335 -340 0
-339 -340 0
335 339 340 0
c gate 341 -11 -336 0
-11 -341 0
-336 -341 0
11 336 341 0
c gate 342 283 -341 0
283 -342 0
-341 -342 0
-283 341 342 0
c gate 343 -340 342 0
-340 -343 0
342 -343 0
340 -342 343 0
c gate 344 2 -24 0
2 -344 0
-24 -344 0
-2 24 344 0
c gate 345 -17 344 0
-17 -345 0
344 -345 0
17 -344 345 0
c gate 346 81 345 0
81 -346 0
345 -346 0
-81 -345 346 0
c gate 347 -2 66 0
-2 -347 0
66 -347 0
2 -66 347 0
c gate 348 -295 347 0
-295 -348 0
347 -348 0
295 -347 348 0
c gate 349 -346 -348 0
-346 -349 0
-348 -349 0
346 348 349 0
c gate 350 -331 -349 0
-331 -350 0
-349 -350 0
331 349 350 0
c gate 351 -10 295 0
-10 -351 0
295 -351 0
10 -295 351 0
c gate 352 -11 -345 0
-11 -352 0
-345 -352 0
11 345 352 0
c gate 353 -52 -352 0
-52 -353 0
-352 -353 0
52 352 353 0
c gate 354 -351 353 0
-351 -354 0
353 -354 0
351 -353 354 0
c gate 355 331 354 0
331 -355 0
354 -355 0
-331 -354 355 0
c gate 356 -350 -355 0
-350 -356 0
-355 -356 0
350 355 356 0
c gate 357 -3 -356 0
-3 -357 0
-356 -357 0
3 356 357 0
c gate 358 -3 -294 0
-3 -358 0
-294 -358 0
3 294 358 0
c gate 359 -69 -358 0
-69 -359 0
-358 -359 0
69 358 359 0
c gate 360 -3 11 0
-3 -360 0
11 -360 0
3 -11 360 0
c gate 361 -283 -360 0
-283 -361 0
-360 -361 0
283 360 361 0
c gate 362 -359 361 0
-359 -362 0
361 -362 0
359 -361 362 0
c gate 363 -2 11 0
-2 -363 0
11 -363 0
2 -11 363 0
c gate 364 -3 10 0
-3 -364 0
10 -364 0
3 -10 364 0
c gate 365 -363 -364 0
-363 -365 0
-364 -365 0
363 364 365 0
c gate 366 170 365 0
170 -366 0
365 -366 0
-170 -365 366 0
c gate 367 -295 366 0
-295 -367 0
366 -367 0
295 -366 367 0
c gate 368 -362 -367 0
-362 -368 0
-367 -368 0
362 367 368 0
c gate 369 -357 368 0
-357 -369 0
368 -369 0
357 -368 369 0
c gate 370 -343 369 0
-343 -370 0
369 -370 0
343 -369 370 0
c gate 371 -335 356 0
-335 -371 0
356 -371 0
335 -356 371 0
c gate 372 -3 -371 0
-3 -372 0
-371 -372 0
3 371 372 0
c gate 373 11 339 0
11 -373 0
339 -373 0
-11 -339 373 0
c gate 374 -367 -373 0
-367 -374 0
-373 -374 0
367 373 374 0
c gate 375 -372 374 0
-372 -375 0
374 -375 0
372 -374 375 0
c gate 376 -370 375 0
-370 -376 0
375 -376 0
370 -375 376 0
c gate 377 -212 -376 0
-212 -377 0
-376 -377 0
212 376 377 0
c gate 378 370 -375 0
370 -378 0
-375 -378 0
-370 375 378 0
c gate 379 5 -6 0
5 -379 0
-6 -379 0
-5 6 379 0
c gate 380 -5 6 0
-5 -380 0
6 -380 0
5 -6 380 0
c gate 381 -379 -380 0
-379 -381 0
-380 -381 0
379 380 381 0
c gate 382 -10 47 0
-10 -382 0
47 -382 0
10 -47 382 0
c gate 383 -381 382 0
-381 -383 0
382 -383 0
381 -382 383 0
c gate 384 -81 -383 0
-81 -384 0
-383 -384 0
81 383 384 0
c gate 385 365 -384 0
365 -385 0
-384 -385 0
-365 384 385 0
c gate 386 -1 -38 0
-1 -386 0
-38 -386 0
1 38 386 0
c gate 387 -39 -386 0
-39 -387 0
-386 -387 0
39 386 387 0
c gate 388 83 -387 0
83 -388 0
-387 -388 0
-83 387 388 0
c gate 389 8 -304 0
8 -389 0
-304 -389 0
-8 304 389 0
c gate 390 -9 -389 0
-9 -390 0
-389 -390 0
9 389 390 0
c gate 391 -10 -390 0
-10 -391 0
-390 -391 0
10 390 391 0
c gate 392 -11 -391 0
-11 -392 0
-391 -392 0
11 391 392 0
c gate 393 -115 392 0
-115 -393 0
392 -393 0
115 -392 393 0
c gate 394 -326 -393 0
-326 -394 0
-393 -394 0
326 393 394 0
c gate 395 53 -394 0
53 -395 0
-394 -395 0
-53 394 395 0
c gate 396 -388 395 0
-388 -396 0
395 -396 0
388 -395 396 0
c gate 397 -53 394 0
-53 -397 0
394 -397 0
53 -394 397 0
c gate 398 -53 388 0
-53 -398 0
388 -398 0
53 -388 398 0
c gate 399 -3 -398 0
-3 -399 0
-398 -399 0
3 398 399 0
c gate 400 -397 399 0
-397 -400 0
399 -400 0
397 -399 400 0
c gate 401 -396 400 0
-396 -401 0
400 -401 0
396 -400 401 0
c gate 402 8 65 0
8 -402 0
65 -402 0
-8 -65 402 0
c gate 403 -23 -383 0
-23 -403 0
-383 -403 0
23 383 403 0
c gate 404 -402 403 0
-402 -404 0
403 -404 0
402 -403 404 0
c gate 405 2 -404 0
2 -405 0
-404 -405 0
-2 404 405 0
c gate 406 -2 403 0
-2 -406 0
403 -406 0
2 -403 406 0
c gate 407 -405 -406 0
-405 -407 0
-406 -407 0
405 406 407 0
c gate 408 -51 407 0
-51 -408 0
407 -408 0
51 -407 408 0
c gate 409 401 408 0
401 -409 0
408 -409 0
-401 -408 409 0
c gate 410 -385 -409 0
-385 -410 0
-409 -410 0
385 409 410 0
c gate 411 9 -410 0
9 -411 0
-410 -411 0
-9 410 411 0
c gate 412 9 -404 0
9 -412 0
-404 -412 0
-9 404 412 0
c gate 413 -9 404 0
-9 -413 0
404 -413 0
9 -404 413 0
c gate 414 -412 -413 0
-412 -414 0
-413 -414 0
412 413 414 0
c gate 415 -3 -414 0
-3 -415 0
-414 -415 0
3 414 415 0
c gate 416 -11 -393 0
-11 -416 0
-393 -416 0
11 393 416 0
c gate 417 -326 -416 0
-326 -417 0
-416 -417 0
326 416 417 0
c gate 418 -388 417 0
-388 -418 0
417 -418 0
388 -417 418 0
c gate 419 25 418 0
25 -419 0
418 -419 0
-25 -418 419 0
c gate 420 -100 418 0
-100 -420 0
418 -420 0
100 -418 420 0
c gate 421 -414 -420 0
-414 -421 0
-420 -421 0
414 420 421 0
c gate 422 -419 -421 0
-419 -422 0
-421 -422 0
419 421 422 0
c gate 423 -415 -422 0
-415 -423 0
-422 -423 0
415 422 423 0
c gate 424 -9 -407 0
-9 -424 0
-407 -424 0
9 407 424 0
c gate 425 401 424 0
401 -425 0
424 -425 0
-401 -424 425 0
c gate 426 -423 -425 0
-423 -426 0
-425 -426 0
423 425 426 0
c gate 427 -411 426 0
-411 -427 0
426 -427 0
411 -426 427 0
c gate 428 406 416 0
406 -428 0
416 -428 0
-406 -416 428 0
c gate 429 -3 -326 0
-3 -429 0
-326 -429 0
3 326 429 0
c gate 430 -405 429 0
-405 -430 0
429 -430 0
405 -429 430 0
c gate 431 -428 430 0
-428 -431 0
430 -431 0
428 -430 431 0
c gate 432 52 404 0
52 -432 0
404 -432 0
-52 -404 432 0
c gate 433 23 -392 0
23 -433 0
-392 -433 0
-23 392 433 0
c gate 434 -432 -433 0
-432 -434 0
-433 -434 0
432 433 434 0
c gate 435 -431 434 0
-431 -435 0
434 -435 0
431 -434 435 0
c gate 436 9 -435 0
9 -436 0
-435 -436 0
-9 435 436 0
c gate 437 -395 -407 0
-395 -437 0
-407 -437 0
395 407 437 0
c gate 438 -397 437 0
-397 -438 0
437 -438 0
397 -437 438 0
c gate 439 -404 417 0
-404 -439 0
417 -439 0
404 -417 439 0
c gate 440 -3 -439 0
-3 -440 0
-439 -440 0
3 439 440 0
c gate 441 -438 440 0
-438 -441 0
440 -441 0
438 -440 441 0
c gate 442 -9 -23 0
-9 -442 0
-23 -442 0
9 23 442 0
c gate 443 -441 442 0
-441 -443 0
442 -443 0
441 -442 443 0
c gate 444 -436 -443 0
-436 -444 0
-443 -444 0
436 443 444 0
c gate 445 -427 -444 0
-427 -445 0
-444 -445 0
427 444 445 0
c gate 446 427 444 0
427 -446 0
444 -446 0
-427 -444 446 0
c gate 447 -445 -446 0
-445 -447 0
-446 -447 0
445 446 447 0
c gate 448 -378 -447 0
-378 -448 0
-447 -448 0
378 447 448 0
c gate 449 377 448 0
377 -449 0
448 -449 0
-377 -448 449 0
c gate 450 -281 449 0
-281 -450 0
449 -450 0
281 -449 450 0
c gate 451 -278 450 0
-278 -451 0
450 -451 0
278 -450 451 0
c gate 452 -277 451 0
-277 -452 0
451 -452 0
277 -451 452 0
c gate 453 -276 452 0
-276 -453 0
452 -453 0
276 -452 453 0
c gate 454 -275 453 0
-275 -454 0
453 -454 0
275 -453 454 0
c PO
-454 0
